21
4.6	7.1	0	0
5.7	11.4	20	1.52 
4.4	12.3	20	0.84 
2.8	14.3	30	0.79 
3.2	10.3	15	5.02 
3.5	9.8	15	3.35 
4.4	8.4	10	3.17 
7.8	11	20	0.84 
8.8	9.8	20	4.92 
7.7	8.2	20	3.59 
6.3	7.9	15	2.03 
5.4	8.2	10	2.96 
5.8	6.8	10	2.32 
6.7	5.8	25	0.44 
13.8	13.1	40	1.39 
14.1	14.2	40	0.71 
11.2	13.6	30	1.06 
9.7	16.4	30	1.39 
9.5	18.8	50	2.41 
4.7	16.8	30	0.29 
5	5.6	0	0

